TSPLIB/results9.tsp
NAME : results9
COMMENT : a comment by the user
TYPE : TSP
DIMENSION : 36
EDGE_WEIGHT_TYPE : EXPLICIT
EDGE_WEIGHT_FORMAT: FULL_MATRIX
EDGE_WEIGHT_SECTION
0 0 89800 139600 72500 99466 99466 144768 105000 121884 121884 158933 99466 89800 89800 99466 99466 121884 144768 139600 139600 144768 144768 158933 0 9999999999 9999999999 9999999999 9999999999 9999999999 9999999999 9999999999 9999999999 9999999999 9999999999 9999999999
0 0 0 89800 99466 72500 72500 99466 121884 105000 105000 121884 72500 0 0 72500 72500 105000 99466 89800 89800 99466 99466 121884 0 9999999999 9999999999 9999999999 9999999999 9999999999 9999999999 9999999999 9999999999 9999999999 9999999999 9999999999
89800 0 0 0 99466 72500 72500 99466 121884 105000 105000 121884 72500 0 0 72500 72500 105000 99466 89800 89800 99466 99466 121884 9999999999 0 9999999999 9999999999 9999999999 9999999999 9999999999 9999999999 9999999999 9999999999 9999999999 9999999999
139600 89800 0 0 144768 99466 99466 72500 158933 121884 121884 105000 99466 89800 89800 99466 99466 121884 72500 0 0 72500 72500 105000 9999999999 0 9999999999 9999999999 9999999999 9999999999 9999999999 9999999999 9999999999 9999999999 9999999999 9999999999
72500 99466 99466 144768 0 0 89800 139600 72500 99466 99466 144768 121884 99466 99466 89800 89800 99466 158933 144768 144768 139600 139600 144768 9999999999 9999999999 0 9999999999 9999999999 9999999999 9999999999 9999999999 9999999999 9999999999 9999999999 9999999999
99466 72500 72500 99466 0 0 0 89800 99466 72500 72500 99466 105000 72500 72500 0 0 72500 121884 99466 99466 89800 89800 99466 9999999999 9999999999 0 9999999999 9999999999 9999999999 9999999999 9999999999 9999999999 9999999999 9999999999 9999999999
99466 72500 72500 99466 89800 0 0 0 99466 72500 72500 99466 105000 72500 72500 0 0 72500 121884 99466 99466 89800 89800 99466 9999999999 9999999999 9999999999 0 9999999999 9999999999 9999999999 9999999999 9999999999 9999999999 9999999999 9999999999
144768 99466 99466 72500 139600 89800 0 0 144768 99466 99466 72500 121884 99466 99466 89800 89800 99466 105000 72500 72500 0 0 72500 9999999999 9999999999 9999999999 0 9999999999 9999999999 9999999999 9999999999 9999999999 9999999999 9999999999 9999999999
105000 121884 121884 158933 72500 99466 99466 144768 0 0 89800 139600 149481 121884 121884 99466 99466 89800 179378 158933 158933 144768 144768 139600 9999999999 9999999999 9999999999 9999999999 0 9999999999 9999999999 9999999999 9999999999 9999999999 9999999999 9999999999
121884 105000 105000 121884 99466 72500 72500 99466 0 0 0 89800 137500 105000 105000 72500 72500 0 149481 121884 121884 99466 99466 89800 9999999999 9999999999 9999999999 9999999999 0 9999999999 9999999999 9999999999 9999999999 9999999999 9999999999 9999999999
121884 105000 105000 121884 99466 72500 72500 99466 89800 0 0 0 137500 105000 105000 72500 72500 0 149481 121884 121884 99466 99466 89800 9999999999 9999999999 9999999999 9999999999 9999999999 0 9999999999 9999999999 9999999999 9999999999 9999999999 9999999999
158933 121884 121884 105000 144768 99466 99466 72500 139600 89800 0 0 149481 121884 121884 99466 99466 89800 137500 105000 105000 72500 72500 0 9999999999 9999999999 9999999999 9999999999 9999999999 0 9999999999 9999999999 9999999999 9999999999 9999999999 9999999999
99466 72500 72500 99466 121884 105000 105000 121884 149481 137500 137500 149481 0 0 72500 105000 105000 137500 89800 99466 99466 121884 121884 149481 9999999999 9999999999 9999999999 9999999999 9999999999 9999999999 0 9999999999 9999999999 9999999999 9999999999 9999999999
89800 0 0 89800 99466 72500 72500 99466 121884 105000 105000 121884 0 0 0 72500 72500 105000 99466 89800 89800 99466 99466 121884 9999999999 9999999999 9999999999 9999999999 9999999999 9999999999 0 9999999999 9999999999 9999999999 9999999999 9999999999
89800 0 0 89800 99466 72500 72500 99466 121884 105000 105000 121884 72500 0 0 0 72500 105000 99466 89800 89800 99466 99466 121884 9999999999 9999999999 9999999999 9999999999 9999999999 9999999999 9999999999 0 9999999999 9999999999 9999999999 9999999999
99466 72500 72500 99466 89800 0 0 89800 99466 72500 72500 99466 105000 72500 0 0 0 72500 121884 99466 99466 89800 89800 99466 9999999999 9999999999 9999999999 9999999999 9999999999 9999999999 9999999999 0 9999999999 9999999999 9999999999 9999999999
99466 72500 72500 99466 89800 0 0 89800 99466 72500 72500 99466 105000 72500 72500 0 0 0 121884 99466 99466 89800 89800 99466 9999999999 9999999999 9999999999 9999999999 9999999999 9999999999 9999999999 9999999999 0 9999999999 9999999999 9999999999
121884 105000 105000 121884 99466 72500 72500 99466 89800 0 0 89800 137500 105000 105000 72500 0 0 149481 121884 121884 99466 99466 89800 9999999999 9999999999 9999999999 9999999999 9999999999 9999999999 9999999999 9999999999 0 9999999999 9999999999 9999999999
144768 99466 99466 72500 158933 121884 121884 105000 179378 149481 149481 137500 89800 99466 99466 121884 121884 149481 0 0 72500 105000 105000 137500 9999999999 9999999999 9999999999 9999999999 9999999999 9999999999 9999999999 9999999999 9999999999 0 9999999999 9999999999
139600 89800 89800 0 144768 99466 99466 72500 158933 121884 121884 105000 99466 89800 89800 99466 99466 121884 0 0 0 72500 72500 105000 9999999999 9999999999 9999999999 9999999999 9999999999 9999999999 9999999999 9999999999 9999999999 0 9999999999 9999999999
139600 89800 89800 0 144768 99466 99466 72500 158933 121884 121884 105000 99466 89800 89800 99466 99466 121884 72500 0 0 0 72500 105000 9999999999 9999999999 9999999999 9999999999 9999999999 9999999999 9999999999 9999999999 9999999999 9999999999 0 9999999999
144768 99466 99466 72500 139600 89800 89800 0 144768 99466 99466 72500 121884 99466 99466 89800 89800 99466 105000 72500 0 0 0 72500 9999999999 9999999999 9999999999 9999999999 9999999999 9999999999 9999999999 9999999999 9999999999 9999999999 0 9999999999
144768 99466 99466 72500 139600 89800 89800 0 144768 99466 99466 72500 121884 99466 99466 89800 89800 99466 105000 72500 72500 0 0 0 9999999999 9999999999 9999999999 9999999999 9999999999 9999999999 9999999999 9999999999 9999999999 9999999999 9999999999 0
158933 121884 121884 105000 144768 99466 99466 72500 139600 89800 89800 0 149481 121884 121884 99466 99466 89800 137500 105000 105000 72500 0 0 9999999999 9999999999 9999999999 9999999999 9999999999 9999999999 9999999999 9999999999 9999999999 9999999999 9999999999 0
0 0 9999999999 9999999999 9999999999 9999999999 9999999999 9999999999 9999999999 9999999999 9999999999 9999999999 9999999999 9999999999 9999999999 9999999999 9999999999 9999999999 9999999999 9999999999 9999999999 9999999999 9999999999 9999999999 0 9999999999 9999999999 9999999999 9999999999 9999999999 9999999999 9999999999 9999999999 9999999999 9999999999 9999999999
9999999999 9999999999 0 0 9999999999 9999999999 9999999999 9999999999 9999999999 9999999999 9999999999 9999999999 9999999999 9999999999 9999999999 9999999999 9999999999 9999999999 9999999999 9999999999 9999999999 9999999999 9999999999 9999999999 9999999999 0 9999999999 9999999999 9999999999 9999999999 9999999999 9999999999 9999999999 9999999999 9999999999 9999999999
9999999999 9999999999 9999999999 9999999999 0 0 9999999999 9999999999 9999999999 9999999999 9999999999 9999999999 9999999999 9999999999 9999999999 9999999999 9999999999 9999999999 9999999999 9999999999 9999999999 9999999999 9999999999 9999999999 9999999999 9999999999 0 9999999999 9999999999 9999999999 9999999999 9999999999 9999999999 9999999999 9999999999 9999999999
9999999999 9999999999 9999999999 9999999999 9999999999 9999999999 0 0 9999999999 9999999999 9999999999 9999999999 9999999999 9999999999 9999999999 9999999999 9999999999 9999999999 9999999999 9999999999 9999999999 9999999999 9999999999 9999999999 9999999999 9999999999 9999999999 0 9999999999 9999999999 9999999999 9999999999 9999999999 9999999999 9999999999 9999999999
9999999999 9999999999 9999999999 9999999999 9999999999 9999999999 9999999999 9999999999 0 0 9999999999 9999999999 9999999999 9999999999 9999999999 9999999999 9999999999 9999999999 9999999999 9999999999 9999999999 9999999999 9999999999 9999999999 9999999999 9999999999 9999999999 9999999999 0 9999999999 9999999999 9999999999 9999999999 9999999999 9999999999 9999999999
9999999999 9999999999 9999999999 9999999999 9999999999 9999999999 9999999999 9999999999 9999999999 9999999999 0 0 9999999999 9999999999 9999999999 9999999999 9999999999 9999999999 9999999999 9999999999 9999999999 9999999999 9999999999 9999999999 9999999999 9999999999 9999999999 9999999999 9999999999 0 9999999999 9999999999 9999999999 9999999999 9999999999 9999999999
9999999999 9999999999 9999999999 9999999999 9999999999 9999999999 9999999999 9999999999 9999999999 9999999999 9999999999 9999999999 0 0 9999999999 9999999999 9999999999 9999999999 9999999999 9999999999 9999999999 9999999999 9999999999 9999999999 9999999999 9999999999 9999999999 9999999999 9999999999 9999999999 0 9999999999 9999999999 9999999999 9999999999 9999999999
9999999999 9999999999 9999999999 9999999999 9999999999 9999999999 9999999999 9999999999 9999999999 9999999999 9999999999 9999999999 9999999999 9999999999 0 0 9999999999 9999999999 9999999999 9999999999 9999999999 9999999999 9999999999 9999999999 9999999999 9999999999 9999999999 9999999999 9999999999 9999999999 9999999999 0 9999999999 9999999999 9999999999 9999999999
9999999999 9999999999 9999999999 9999999999 9999999999 9999999999 9999999999 9999999999 9999999999 9999999999 9999999999 9999999999 9999999999 9999999999 9999999999 9999999999 0 0 9999999999 9999999999 9999999999 9999999999 9999999999 9999999999 9999999999 9999999999 9999999999 9999999999 9999999999 9999999999 9999999999 9999999999 0 9999999999 9999999999 9999999999
9999999999 9999999999 9999999999 9999999999 9999999999 9999999999 9999999999 9999999999 9999999999 9999999999 9999999999 9999999999 9999999999 9999999999 9999999999 9999999999 9999999999 9999999999 0 0 9999999999 9999999999 9999999999 9999999999 9999999999 9999999999 9999999999 9999999999 9999999999 9999999999 9999999999 9999999999 9999999999 0 9999999999 9999999999
9999999999 9999999999 9999999999 9999999999 9999999999 9999999999 9999999999 9999999999 9999999999 9999999999 9999999999 9999999999 9999999999 9999999999 9999999999 9999999999 9999999999 9999999999 9999999999 9999999999 0 0 9999999999 9999999999 9999999999 9999999999 9999999999 9999999999 9999999999 9999999999 9999999999 9999999999 9999999999 9999999999 0 9999999999
9999999999 9999999999 9999999999 9999999999 9999999999 9999999999 9999999999 9999999999 9999999999 9999999999 9999999999 9999999999 9999999999 9999999999 9999999999 9999999999 9999999999 9999999999 9999999999 9999999999 9999999999 9999999999 0 0 9999999999 9999999999 9999999999 9999999999 9999999999 9999999999 9999999999 9999999999 9999999999 9999999999 9999999999 0
EOF
